p cnf 966 2481
51 -2 -699 0
-51 2 0
-51 699 0
52 -51 -700 0
-52 51 0
-52 700 0
53 -5 -701 0
-53 5 0
-53 701 0
54 -53 -702 0
-54 53 0
-54 702 0
55 -703 -704 0
-55 703 0
-55 704 0
56 -705 -7 0
-56 705 0
-56 7 0
57 -56 -9 0
-57 56 0
-57 9 0
58 -706 -55 0
-58 706 0
-58 55 0
59 -707 -2 0
-59 707 0
-59 2 0
60 -59 -708 0
-60 59 0
-60 708 0
61 -709 -58 0
-61 709 0
-61 58 0
62 -9 -5 0
-62 9 0
-62 5 0
63 -62 -12 0
-63 62 0
-63 12 0
64 -710 -61 0
-64 710 0
-64 61 0
65 -14 -13 0
-65 14 0
-65 13 0
66 -65 -711 0
-66 65 0
-66 711 0
67 -712 -64 0
-67 712 0
-67 64 0
68 -16 -713 0
-68 16 0
-68 713 0
69 -68 -702 0
-69 68 0
-69 702 0
70 -714 -67 0
-70 714 0
-70 67 0
71 -715 -16 0
-71 715 0
-71 16 0
72 -71 -18 0
-72 71 0
-72 18 0
73 -716 -70 0
-73 716 0
-73 70 0
74 -20 -717 0
-74 20 0
-74 717 0
75 -74 -21 0
-75 74 0
-75 21 0
76 -718 -73 0
-76 718 0
-76 73 0
77 -22 -719 0
-77 22 0
-77 719 0
78 -77 -720 0
-78 77 0
-78 720 0
79 -721 -76 0
-79 721 0
-79 76 0
80 -722 -699 0
-80 722 0
-80 699 0
81 -80 -11 0
-81 80 0
-81 11 0
82 -723 -79 0
-82 723 0
-82 79 0
83 -724 -720 0
-83 724 0
-83 720 0
84 -83 -725 0
-84 83 0
-84 725 0
85 -726 -82 0
-85 726 0
-85 82 0
86 -25 -14 0
-86 25 0
-86 14 0
87 -86 -26 0
-87 86 0
-87 26 0
88 -727 -85 0
-88 727 0
-88 85 0
89 -728 -10 0
-89 728 0
-89 10 0
90 -89 -729 0
-90 89 0
-90 729 0
91 -730 -88 0
-91 730 0
-91 88 0
92 -25 -711 0
-92 25 0
-92 711 0
93 -92 -12 0
-93 92 0
-93 12 0
94 -731 -91 0
-94 731 0
-94 91 0
95 -732 -29 0
-95 732 0
-95 29 0
96 -95 -26 0
-96 95 0
-96 26 0
97 -733 -94 0
-97 733 0
-97 94 0
98 -31 -3 0
-98 31 0
-98 3 0
99 -98 -702 0
-99 98 0
-99 702 0
100 -734 -97 0
-100 734 0
-100 97 0
101 -23 -22 0
-101 23 0
-101 22 0
102 -101 -32 0
-102 101 0
-102 32 0
103 -735 -100 0
-103 735 0
-103 100 0
104 -736 -707 0
-104 736 0
-104 707 0
105 -104 -5 0
-105 104 0
-105 5 0
106 -737 -103 0
-106 737 0
-106 103 0
107 -35 -34 0
-107 35 0
-107 34 0
108 -107 -36 0
-108 107 0
-108 36 0
109 -738 -106 0
-109 738 0
-109 106 0
110 -37 -19 0
-110 37 0
-110 19 0
111 -110 -23 0
-111 110 0
-111 23 0
112 -739 -109 0
-112 739 0
-112 109 0
113 -740 -741 0
-113 740 0
-113 741 0
114 -113 -18 0
-114 113 0
-114 18 0
115 -742 -112 0
-115 742 0
-115 112 0
116 -39 -27 0
-116 39 0
-116 27 0
117 -116 -743 0
-117 116 0
-117 743 0
118 -744 -115 0
-118 744 0
-118 115 0
119 -40 -17 0
-119 40 0
-119 17 0
120 -119 -745 0
-120 119 0
-120 745 0
121 -746 -118 0
-121 746 0
-121 118 0
122 -747 -748 0
-122 747 0
-122 748 0
123 -122 -26 0
-123 122 0
-123 26 0
124 -749 -121 0
-124 749 0
-124 121 0
125 -750 -27 0
-125 750 0
-125 27 0
126 -125 -36 0
-126 125 0
-126 36 0
127 -751 -124 0
-127 751 0
-127 124 0
128 -750 -722 0
-128 750 0
-128 722 0
129 -128 -21 0
-129 128 0
-129 21 0
130 -752 -127 0
-130 752 0
-130 127 0
131 -715 -5 0
-131 715 0
-131 5 0
132 -131 -6 0
-132 131 0
-132 6 0
133 -753 -130 0
-133 753 0
-133 130 0
134 -34 -728 0
-134 34 0
-134 728 0
135 -134 -754 0
-135 134 0
-135 754 0
136 -755 -133 0
-136 755 0
-136 133 0
137 -43 -31 0
-137 43 0
-137 31 0
138 -137 -711 0
-138 137 0
-138 711 0
139 -756 -136 0
-139 756 0
-139 136 0
140 -44 -728 0
-140 44 0
-140 728 0
141 -140 -40 0
-141 140 0
-141 40 0
142 -757 -139 0
-142 757 0
-142 139 0
143 -33 -10 0
-143 33 0
-143 10 0
144 -143 -32 0
-144 143 0
-144 32 0
145 -758 -142 0
-145 758 0
-145 142 0
146 -759 -39 0
-146 759 0
-146 39 0
147 -146 -729 0
-147 146 0
-147 729 0
148 -760 -145 0
-148 760 0
-148 145 0
149 -8 -1 0
-149 8 0
-149 1 0
150 -149 -17 0
-150 149 0
-150 17 0
151 -761 -148 0
-151 761 0
-151 148 0
152 -43 -762 0
-152 43 0
-152 762 0
153 -152 -702 0
-153 152 0
-153 702 0
154 -763 -151 0
-154 763 0
-154 151 0
155 -759 -764 0
-155 759 0
-155 764 0
156 -155 -26 0
-156 155 0
-156 26 0
157 -765 -154 0
-157 765 0
-157 154 0
158 -45 -19 0
-158 45 0
-158 19 0
159 -158 -766 0
-159 158 0
-159 766 0
160 -767 -157 0
-160 767 0
-160 157 0
161 -46 -728 0
-161 46 0
-161 728 0
162 -161 -717 0
-162 161 0
-162 717 0
163 -768 -160 0
-163 768 0
-163 160 0
164 -740 -25 0
-164 740 0
-164 25 0
165 -164 -24 0
-165 164 0
-165 24 0
166 -769 -163 0
-166 769 0
-166 163 0
167 -42 -741 0
-167 42 0
-167 741 0
168 -167 -770 0
-168 167 0
-168 770 0
169 -771 -166 0
-169 771 0
-169 166 0
170 -772 -724 0
-170 772 0
-170 724 0
171 -170 -725 0
-171 170 0
-171 725 0
172 -773 -169 0
-172 773 0
-172 169 0
173 -715 -9 0
-173 715 0
-173 9 0
174 -173 -702 0
-174 173 0
-174 702 0
175 -774 -172 0
-175 774 0
-175 172 0
176 -48 -775 0
-176 48 0
-176 775 0
177 -176 -6 0
-177 176 0
-177 6 0
178 -776 -175 0
-178 776 0
-178 175 0
179 -39 -764 0
-179 39 0
-179 764 0
180 -179 -11 0
-180 179 0
-180 11 0
181 -777 -178 0
-181 777 0
-181 178 0
182 -772 -778 0
-182 772 0
-182 778 0
183 -182 -702 0
-183 182 0
-183 702 0
184 -779 -181 0
-184 779 0
-184 181 0
185 -40 -699 0
-185 40 0
-185 699 0
186 -185 -28 0
-186 185 0
-186 28 0
187 -780 -184 0
-187 780 0
-187 184 0
188 -35 -3 0
-188 35 0
-188 3 0
189 -188 -724 0
-189 188 0
-189 724 0
190 -781 -187 0
-190 781 0
-190 187 0
191 -782 -10 0
-191 782 0
-191 10 0
192 -191 -36 0
-192 191 0
-192 36 0
193 -783 -190 0
-193 783 0
-193 190 0
194 -775 -18 0
-194 775 0
-194 18 0
195 -194 -36 0
-195 194 0
-195 36 0
196 -784 -193 0
-196 784 0
-196 193 0
197 -9 -7 0
-197 9 0
-197 7 0
198 -197 -42 0
-198 197 0
-198 42 0
199 -785 -196 0
-199 785 0
-199 196 0
200 -786 -34 0
-200 786 0
-200 34 0
201 -200 -702 0
-201 200 0
-201 702 0
202 -787 -199 0
-202 787 0
-202 199 0
203 -33 -25 0
-203 33 0
-203 25 0
204 -203 -788 0
-204 203 0
-204 788 0
205 -789 -202 0
-205 789 0
-205 202 0
206 -786 -5 0
-206 786 0
-206 5 0
207 -206 -23 0
-207 206 0
-207 23 0
208 -790 -205 0
-208 790 0
-208 205 0
209 -775 -791 0
-209 775 0
-209 791 0
210 -209 -743 0
-210 209 0
-210 743 0
211 -792 -208 0
-211 792 0
-211 208 0
212 -48 -762 0
-212 48 0
-212 762 0
213 -212 -754 0
-213 212 0
-213 754 0
214 -793 -211 0
-214 793 0
-214 211 0
215 -794 -4 0
-215 794 0
-215 4 0
216 -215 -35 0
-216 215 0
-216 35 0
217 -795 -214 0
-217 795 0
-217 214 0
218 -43 -732 0
-218 43 0
-218 732 0
219 -218 -11 0
-219 218 0
-219 11 0
220 -796 -217 0
-220 796 0
-220 217 0
221 -772 -791 0
-221 772 0
-221 791 0
222 -221 -725 0
-222 221 0
-222 725 0
223 -797 -220 0
-223 797 0
-223 220 0
224 -700 -699 0
-224 700 0
-224 699 0
225 -224 -22 0
-225 224 0
-225 22 0
226 -798 -223 0
-226 798 0
-226 223 0
227 -18 -17 0
-227 18 0
-227 17 0
228 -227 -23 0
-228 227 0
-228 23 0
229 -799 -226 0
-229 799 0
-229 226 0
230 -24 -19 0
-230 24 0
-230 19 0
231 -230 -22 0
-231 230 0
-231 22 0
232 -800 -229 0
-232 800 0
-232 229 0
233 -786 -729 0
-233 786 0
-233 729 0
234 -233 -30 0
-234 233 0
-234 30 0
235 -801 -232 0
-235 801 0
-235 232 0
236 -31 -719 0
-236 31 0
-236 719 0
237 -236 -50 0
-237 236 0
-237 50 0
238 -802 -235 0
-238 802 0
-238 235 0
239 -803 -705 0
-239 803 0
-239 705 0
240 -239 -3 0
-240 239 0
-240 3 0
241 -804 -238 0
-241 804 0
-241 238 0
242 -34 -29 0
-242 34 0
-242 29 0
243 -242 -13 0
-243 242 0
-243 13 0
244 -805 -241 0
-244 805 0
-244 241 0
245 -15 -705 0
-245 15 0
-245 705 0
246 -245 -24 0
-246 245 0
-246 24 0
247 -806 -244 0
-247 806 0
-247 244 0
248 -807 -736 0
-248 807 0
-248 736 0
249 -248 -3 0
-249 248 0
-249 3 0
250 -808 -247 0
-250 808 0
-250 247 0
251 -49 -38 0
-251 49 0
-251 38 0
252 -251 -30 0
-252 251 0
-252 30 0
253 -809 -250 0
-253 809 0
-253 250 0
254 -745 -736 0
-254 745 0
-254 736 0
255 -254 -778 0
-255 254 0
-255 778 0
256 -810 -253 0
-256 810 0
-256 253 0
257 -7 -2 0
-257 7 0
-257 2 0
258 -257 -772 0
-258 257 0
-258 772 0
259 -811 -256 0
-259 811 0
-259 256 0
260 -46 -764 0
-260 46 0
-260 764 0
261 -260 -729 0
-261 260 0
-261 729 0
262 -812 -259 0
-262 812 0
-262 259 0
263 -813 -720 0
-263 813 0
-263 720 0
264 -263 -814 0
-264 263 0
-264 814 0
265 -815 -262 0
-265 815 0
-265 262 0
266 -40 -19 0
-266 40 0
-266 19 0
267 -266 -807 0
-267 266 0
-267 807 0
268 -816 -265 0
-268 816 0
-268 265 0
269 -47 -42 0
-269 47 0
-269 42 0
270 -269 -778 0
-270 269 0
-270 778 0
271 -817 -268 0
-271 817 0
-271 268 0
272 -764 -729 0
-272 764 0
-272 729 0
273 -272 -50 0
-273 272 0
-273 50 0
274 -818 -271 0
-274 818 0
-274 271 0
275 -43 -14 0
-275 43 0
-275 14 0
276 -275 -732 0
-276 275 0
-276 732 0
277 -819 -274 0
-277 819 0
-277 274 0
278 -820 -701 0
-278 820 0
-278 701 0
279 -278 -754 0
-279 278 0
-279 754 0
280 -821 -277 0
-280 821 0
-280 277 0
281 -750 -820 0
-281 750 0
-281 820 0
282 -281 -743 0
-282 281 0
-282 743 0
283 -822 -280 0
-283 822 0
-283 280 0
284 -20 -14 0
-284 20 0
-284 14 0
285 -284 -702 0
-285 284 0
-285 702 0
286 -823 -283 0
-286 823 0
-286 283 0
287 -745 -754 0
-287 745 0
-287 754 0
288 -287 -711 0
-288 287 0
-288 711 0
289 -824 -286 0
-289 824 0
-289 286 0
290 -33 -12 0
-290 33 0
-290 12 0
291 -290 -732 0
-291 290 0
-291 732 0
292 -825 -289 0
-292 825 0
-292 289 0
293 -766 -748 0
-293 766 0
-293 748 0
294 -293 -732 0
-294 293 0
-294 732 0
295 -826 -292 0
-295 826 0
-295 292 0
296 -782 -814 0
-296 782 0
-296 814 0
297 -296 -827 0
-297 296 0
-297 827 0
298 -828 -295 0
-298 828 0
-298 295 0
299 -36 -16 0
-299 36 0
-299 16 0
300 -299 -6 0
-300 299 0
-300 6 0
301 -829 -298 0
-301 829 0
-301 298 0
302 -45 -1 0
-302 45 0
-302 1 0
303 -302 -724 0
-303 302 0
-303 724 0
304 -830 -301 0
-304 830 0
-304 301 0
305 -807 -772 0
-305 807 0
-305 772 0
306 -305 -36 0
-306 305 0
-306 36 0
307 -831 -304 0
-307 831 0
-307 304 0
308 -42 -764 0
-308 42 0
-308 764 0
309 -308 -708 0
-309 308 0
-309 708 0
310 -832 -307 0
-310 832 0
-310 307 0
311 -7 -701 0
-311 7 0
-311 701 0
312 -311 -748 0
-312 311 0
-312 748 0
313 -833 -310 0
-313 833 0
-313 310 0
314 -772 -729 0
-314 772 0
-314 729 0
315 -314 -732 0
-315 314 0
-315 732 0
316 -834 -313 0
-316 834 0
-316 313 0
317 -807 -794 0
-317 807 0
-317 794 0
318 -317 -778 0
-318 317 0
-318 778 0
319 -835 -316 0
-319 835 0
-319 316 0
320 -34 -20 0
-320 34 0
-320 20 0
321 -320 -700 0
-321 320 0
-321 700 0
322 -836 -319 0
-322 836 0
-322 319 0
323 -775 -13 0
-323 775 0
-323 13 0
324 -323 -41 0
-324 323 0
-324 41 0
325 -837 -322 0
-325 837 0
-325 322 0
326 -764 -25 0
-326 764 0
-326 25 0
327 -326 -28 0
-327 326 0
-327 28 0
328 -838 -325 0
-328 838 0
-328 325 0
329 -803 -19 0
-329 803 0
-329 19 0
330 -329 -741 0
-330 329 0
-330 741 0
331 -839 -328 0
-331 839 0
-331 328 0
332 -45 -28 0
-332 45 0
-332 28 0
333 -332 -20 0
-333 332 0
-333 20 0
334 -840 -331 0
-334 840 0
-334 331 0
335 -34 -18 0
-335 34 0
-335 18 0
336 -335 -711 0
-336 335 0
-336 711 0
337 -841 -334 0
-337 841 0
-337 334 0
338 -33 -2 0
-338 33 0
-338 2 0
339 -338 -12 0
-339 338 0
-339 12 0
340 -842 -337 0
-340 842 0
-340 337 0
341 -49 -17 0
-341 49 0
-341 17 0
342 -341 -743 0
-342 341 0
-342 743 0
343 -843 -340 0
-343 843 0
-343 340 0
344 -788 -719 0
-344 788 0
-344 719 0
345 -344 -725 0
-345 344 0
-345 725 0
346 -844 -343 0
-346 844 0
-346 343 0
347 -36 -24 0
-347 36 0
-347 24 0
348 -347 -732 0
-348 347 0
-348 732 0
349 -845 -346 0
-349 845 0
-349 346 0
350 -46 -747 0
-350 46 0
-350 747 0
351 -350 -700 0
-351 350 0
-351 700 0
352 -846 -349 0
-352 846 0
-352 349 0
353 -750 -25 0
-353 750 0
-353 25 0
354 -353 -729 0
-354 353 0
-354 729 0
355 -847 -352 0
-355 847 0
-355 352 0
356 -741 -762 0
-356 741 0
-356 762 0
357 -356 -770 0
-357 356 0
-357 770 0
358 -848 -355 0
-358 848 0
-358 355 0
359 -36 -736 0
-359 36 0
-359 736 0
360 -359 -725 0
-360 359 0
-360 725 0
361 -849 -358 0
-361 849 0
-361 358 0
362 -5 -699 0
-362 5 0
-362 699 0
363 -362 -11 0
-363 362 0
-363 11 0
364 -850 -361 0
-364 850 0
-364 361 0
365 -729 -701 0
-365 729 0
-365 701 0
366 -365 -13 0
-366 365 0
-366 13 0
367 -851 -364 0
-367 851 0
-367 364 0
368 -741 -747 0
-368 741 0
-368 747 0
369 -368 -740 0
-369 368 0
-369 740 0
370 -852 -367 0
-370 852 0
-370 367 0
371 -782 -19 0
-371 782 0
-371 19 0
372 -371 -700 0
-372 371 0
-372 700 0
373 -853 -370 0
-373 853 0
-373 370 0
374 -212 -724 0
-374 212 0
-374 724 0
375 -854 -373 0
-375 854 0
-375 373 0
376 -37 -27 0
-376 37 0
-376 27 0
377 -376 -732 0
-377 376 0
-377 732 0
378 -855 -375 0
-378 855 0
-378 375 0
379 -45 -786 0
-379 45 0
-379 786 0
380 -379 -725 0
-380 379 0
-380 725 0
381 -856 -378 0
-381 856 0
-381 378 0
382 -788 -47 0
-382 788 0
-382 47 0
383 -382 -23 0
-383 382 0
-383 23 0
384 -857 -381 0
-384 857 0
-384 381 0
385 -772 -19 0
-385 772 0
-385 19 0
386 -385 -43 0
-386 385 0
-386 43 0
387 -858 -384 0
-387 858 0
-387 384 0
388 -19 -4 0
-388 19 0
-388 4 0
389 -388 -2 0
-389 388 0
-389 2 0
390 -859 -387 0
-390 859 0
-390 387 0
391 -750 -707 0
-391 750 0
-391 707 0
392 -391 -743 0
-392 391 0
-392 743 0
393 -860 -390 0
-393 860 0
-393 390 0
394 -729 -813 0
-394 729 0
-394 813 0
395 -394 -43 0
-395 394 0
-395 43 0
396 -861 -393 0
-396 861 0
-396 393 0
397 -40 -701 0
-397 40 0
-397 701 0
398 -397 -778 0
-398 397 0
-398 778 0
399 -862 -396 0
-399 862 0
-399 396 0
400 -772 -1 0
-400 772 0
-400 1 0
401 -400 -778 0
-401 400 0
-401 778 0
402 -863 -399 0
-402 863 0
-402 399 0
403 -49 -28 0
-403 49 0
-403 28 0
404 -403 -766 0
-404 403 0
-404 766 0
405 -864 -402 0
-405 864 0
-405 402 0
406 -782 -40 0
-406 782 0
-406 40 0
407 -406 -5 0
-407 406 0
-407 5 0
408 -865 -405 0
-408 865 0
-408 405 0
409 -27 -748 0
-409 27 0
-409 748 0
410 -409 -2 0
-410 409 0
-410 2 0
411 -866 -408 0
-411 866 0
-411 408 0
412 -820 -33 0
-412 820 0
-412 33 0
413 -412 -16 0
-413 412 0
-413 16 0
414 -867 -411 0
-414 867 0
-414 411 0
415 -813 -3 0
-415 813 0
-415 3 0
416 -415 -725 0
-416 415 0
-416 725 0
417 -868 -414 0
-417 868 0
-417 414 0
418 -745 -31 0
-418 745 0
-418 31 0
419 -418 -30 0
-419 418 0
-419 30 0
420 -869 -417 0
-420 869 0
-420 417 0
421 -38 -717 0
-421 38 0
-421 717 0
422 -421 -700 0
-422 421 0
-422 700 0
423 -870 -420 0
-423 870 0
-423 420 0
424 -720 -9 0
-424 720 0
-424 9 0
425 -424 -732 0
-425 424 0
-425 732 0
426 -871 -423 0
-426 871 0
-426 423 0
427 -764 -19 0
-427 764 0
-427 19 0
428 -427 -22 0
-428 427 0
-428 22 0
429 -872 -426 0
-429 872 0
-429 426 0
430 -48 -18 0
-430 48 0
-430 18 0
431 -430 -36 0
-431 430 0
-431 36 0
432 -873 -429 0
-432 873 0
-432 429 0
433 -874 -747 0
-433 874 0
-433 747 0
434 -433 -10 0
-434 433 0
-434 10 0
435 -875 -432 0
-435 875 0
-435 432 0
436 -40 -707 0
-436 40 0
-436 707 0
437 -436 -30 0
-437 436 0
-437 30 0
438 -876 -435 0
-438 876 0
-438 435 0
439 -741 -877 0
-439 741 0
-439 877 0
440 -439 -732 0
-440 439 0
-440 732 0
441 -878 -438 0
-441 878 0
-441 438 0
442 -736 -20 0
-442 736 0
-442 20 0
443 -442 -732 0
-443 442 0
-443 732 0
444 -879 -441 0
-444 879 0
-444 441 0
445 -45 -6 0
-445 45 0
-445 6 0
446 -445 -11 0
-446 445 0
-446 11 0
447 -880 -444 0
-447 880 0
-447 444 0
448 -48 -35 0
-448 48 0
-448 35 0
449 -448 -725 0
-449 448 0
-449 725 0
450 -881 -447 0
-450 881 0
-450 447 0
451 -47 -882 0
-451 47 0
-451 882 0
452 -451 -17 0
-452 451 0
-452 17 0
453 -883 -450 0
-453 883 0
-453 450 0
454 -326 -5 0
-454 326 0
-454 5 0
455 -884 -453 0
-455 884 0
-455 453 0
456 -39 -29 0
-456 39 0
-456 29 0
457 -456 -43 0
-457 456 0
-457 43 0
458 -885 -455 0
-458 885 0
-458 455 0
459 -803 -736 0
-459 803 0
-459 736 0
460 -459 -778 0
-460 459 0
-460 778 0
461 -886 -458 0
-461 886 0
-461 458 0
462 -29 -15 0
-462 29 0
-462 15 0
463 -462 -24 0
-463 462 0
-463 24 0
464 -887 -461 0
-464 887 0
-464 461 0
465 -741 -699 0
-465 741 0
-465 699 0
466 -465 -740 0
-466 465 0
-466 740 0
467 -888 -464 0
-467 888 0
-467 464 0
468 -236 -3 0
-468 236 0
-468 3 0
469 -889 -467 0
-469 889 0
-469 467 0
470 -772 -39 0
-470 772 0
-470 39 0
471 -470 -6 0
-471 470 0
-471 6 0
472 -890 -469 0
-472 890 0
-472 469 0
473 -29 -699 0
-473 29 0
-473 699 0
474 -473 -14 0
-474 473 0
-474 14 0
475 -891 -472 0
-475 891 0
-475 472 0
476 -807 -10 0
-476 807 0
-476 10 0
477 -476 -729 0
-477 476 0
-477 729 0
478 -892 -475 0
-478 892 0
-478 475 0
479 -21 -748 0
-479 21 0
-479 748 0
480 -479 -15 0
-480 479 0
-480 15 0
481 -893 -478 0
-481 893 0
-481 478 0
482 -728 -7 0
-482 728 0
-482 7 0
483 -482 -715 0
-483 482 0
-483 715 0
484 -894 -481 0
-484 894 0
-484 481 0
485 -715 -748 0
-485 715 0
-485 748 0
486 -485 -719 0
-486 485 0
-486 719 0
487 -895 -484 0
-487 895 0
-487 484 0
488 -45 -12 0
-488 45 0
-488 12 0
489 -488 -814 0
-489 488 0
-489 814 0
490 -896 -487 0
-490 896 0
-490 487 0
491 -39 -728 0
-491 39 0
-491 728 0
492 -491 -814 0
-492 491 0
-492 814 0
493 -897 -490 0
-493 897 0
-493 490 0
494 -820 -21 0
-494 820 0
-494 21 0
495 -494 -30 0
-495 494 0
-495 30 0
496 -898 -493 0
-496 898 0
-496 493 0
497 -782 -1 0
-497 782 0
-497 1 0
498 -497 -2 0
-498 497 0
-498 2 0
499 -899 -496 0
-499 899 0
-499 496 0
500 -35 -29 0
-500 35 0
-500 29 0
501 -500 -743 0
-501 500 0
-501 743 0
502 -900 -499 0
-502 900 0
-502 499 0
503 -759 -42 0
-503 759 0
-503 42 0
504 -503 -6 0
-504 503 0
-504 6 0
505 -901 -502 0
-505 901 0
-505 502 0
506 -770 -711 0
-506 770 0
-506 711 0
507 -506 -814 0
-507 506 0
-507 814 0
508 -902 -505 0
-508 902 0
-508 505 0
509 -754 -722 0
-509 754 0
-509 722 0
510 -509 -24 0
-510 509 0
-510 24 0
511 -903 -508 0
-511 903 0
-511 508 0
512 -41 -748 0
-512 41 0
-512 748 0
513 -512 -36 0
-513 512 0
-513 36 0
514 -904 -511 0
-514 904 0
-514 511 0
515 -28 -715 0
-515 28 0
-515 715 0
516 -515 -724 0
-516 515 0
-516 724 0
517 -905 -514 0
-517 905 0
-517 514 0
518 -747 -701 0
-518 747 0
-518 701 0
519 -518 -715 0
-519 518 0
-519 715 0
520 -906 -517 0
-520 906 0
-520 517 0
521 -772 -711 0
-521 772 0
-521 711 0
522 -521 -12 0
-522 521 0
-522 12 0
523 -907 -520 0
-523 907 0
-523 520 0
524 -25 -21 0
-524 25 0
-524 21 0
525 -524 -38 0
-525 524 0
-525 38 0
526 -908 -523 0
-526 908 0
-526 523 0
527 -35 -766 0
-527 35 0
-527 766 0
528 -527 -762 0
-528 527 0
-528 762 0
529 -909 -526 0
-529 909 0
-529 526 0
530 -803 -23 0
-530 803 0
-530 23 0
531 -530 -32 0
-531 530 0
-531 32 0
532 -910 -529 0
-532 910 0
-532 529 0
533 -43 -736 0
-533 43 0
-533 736 0
534 -533 -786 0
-534 533 0
-534 786 0
535 -911 -532 0
-535 911 0
-535 532 0
536 -750 -745 0
-536 750 0
-536 745 0
537 -536 -3 0
-537 536 0
-537 3 0
538 -912 -535 0
-538 912 0
-538 535 0
539 -759 -748 0
-539 759 0
-539 748 0
540 -539 -770 0
-540 539 0
-540 770 0
541 -913 -538 0
-541 913 0
-541 538 0
542 -31 -720 0
-542 31 0
-542 720 0
543 -542 -732 0
-543 542 0
-543 732 0
544 -914 -541 0
-544 914 0
-544 541 0
545 -33 -705 0
-545 33 0
-545 705 0
546 -545 -748 0
-546 545 0
-546 748 0
547 -915 -544 0
-547 915 0
-547 544 0
548 -49 -882 0
-548 49 0
-548 882 0
549 -548 -42 0
-549 548 0
-549 42 0
550 -916 -547 0
-550 916 0
-550 547 0
551 -794 -717 0
-551 794 0
-551 717 0
552 -551 -11 0
-552 551 0
-552 11 0
553 -917 -550 0
-553 917 0
-553 550 0
554 -745 -17 0
-554 745 0
-554 17 0
555 -554 -814 0
-555 554 0
-555 814 0
556 -918 -553 0
-556 918 0
-556 553 0
557 -49 -19 0
-557 49 0
-557 19 0
558 -557 -729 0
-558 557 0
-558 729 0
559 -919 -556 0
-559 919 0
-559 556 0
560 -31 -705 0
-560 31 0
-560 705 0
561 -560 -12 0
-561 560 0
-561 12 0
562 -920 -559 0
-562 920 0
-562 559 0
563 -34 -25 0
-563 34 0
-563 25 0
564 -563 -701 0
-564 563 0
-564 701 0
565 -921 -562 0
-565 921 0
-565 562 0
566 -705 -699 0
-566 705 0
-566 699 0
567 -566 -41 0
-567 566 0
-567 41 0
568 -922 -565 0
-568 922 0
-568 565 0
569 -762 -707 0
-569 762 0
-569 707 0
570 -569 -14 0
-570 569 0
-570 14 0
571 -923 -568 0
-571 923 0
-571 568 0
572 -814 -20 0
-572 814 0
-572 20 0
573 -572 -702 0
-573 572 0
-573 702 0
574 -924 -571 0
-574 924 0
-574 571 0
575 -786 -775 0
-575 786 0
-575 775 0
576 -575 -24 0
-576 575 0
-576 24 0
577 -925 -574 0
-577 925 0
-577 574 0
578 -45 -4 0
-578 45 0
-578 4 0
579 -578 -41 0
-579 578 0
-579 41 0
580 -926 -577 0
-580 926 0
-580 577 0
581 -877 -7 0
-581 877 0
-581 7 0
582 -581 -12 0
-582 581 0
-582 12 0
583 -927 -580 0
-583 927 0
-583 580 0
584 -48 -13 0
-584 48 0
-584 13 0
585 -584 -6 0
-585 584 0
-585 6 0
586 -928 -583 0
-586 928 0
-586 583 0
587 -47 -707 0
-587 47 0
-587 707 0
588 -587 -21 0
-588 587 0
-588 21 0
589 -929 -586 0
-589 929 0
-589 586 0
590 -31 -762 0
-590 31 0
-590 762 0
591 -590 -37 0
-591 590 0
-591 37 0
592 -930 -589 0
-592 930 0
-592 589 0
593 -788 -19 0
-593 788 0
-593 19 0
594 -593 -23 0
-594 593 0
-594 23 0
595 -931 -592 0
-595 931 0
-595 592 0
596 -747 -10 0
-596 747 0
-596 10 0
597 -596 -778 0
-597 596 0
-597 778 0
598 -932 -595 0
-598 932 0
-598 595 0
599 -49 -25 0
-599 49 0
-599 25 0
600 -599 -745 0
-600 599 0
-600 745 0
601 -933 -598 0
-601 933 0
-601 598 0
602 -28 -10 0
-602 28 0
-602 10 0
603 -602 -711 0
-603 602 0
-603 711 0
604 -934 -601 0
-604 934 0
-604 601 0
605 -459 -719 0
-605 459 0
-605 719 0
606 -935 -604 0
-606 935 0
-606 604 0
607 -701 -1 0
-607 701 0
-607 1 0
608 -607 -29 0
-608 607 0
-608 29 0
609 -936 -606 0
-609 936 0
-609 606 0
610 -40 -21 0
-610 40 0
-610 21 0
611 -610 -30 0
-611 610 0
-611 30 0
612 -937 -609 0
-612 937 0
-612 609 0
613 -782 -778 0
-613 782 0
-613 778 0
614 -613 -22 0
-614 613 0
-614 22 0
615 -938 -612 0
-615 938 0
-615 612 0
616 -44 -34 0
-616 44 0
-616 34 0
617 -616 -5 0
-617 616 0
-617 5 0
618 -939 -615 0
-618 939 0
-618 615 0
619 -41 -31 0
-619 41 0
-619 31 0
620 -619 -702 0
-620 619 0
-620 702 0
621 -940 -618 0
-621 940 0
-621 618 0
622 -39 -707 0
-622 39 0
-622 707 0
623 -622 -708 0
-623 622 0
-623 708 0
624 -941 -621 0
-624 941 0
-624 621 0
625 -34 -762 0
-625 34 0
-625 762 0
626 -625 -743 0
-626 625 0
-626 743 0
627 -942 -624 0
-627 942 0
-627 624 0
628 -740 -764 0
-628 740 0
-628 764 0
629 -628 -725 0
-629 628 0
-629 725 0
630 -943 -627 0
-630 943 0
-630 627 0
631 -43 -750 0
-631 43 0
-631 750 0
632 -631 -32 0
-632 631 0
-632 32 0
633 -944 -630 0
-633 944 0
-633 630 0
634 -46 -34 0
-634 46 0
-634 34 0
635 -634 -20 0
-635 634 0
-635 20 0
636 -945 -633 0
-636 945 0
-636 633 0
637 -50 -20 0
-637 50 0
-637 20 0
638 -637 -827 0
-638 637 0
-638 827 0
639 -946 -636 0
-639 946 0
-639 636 0
640 -42 -820 0
-640 42 0
-640 820 0
641 -640 -708 0
-641 640 0
-641 708 0
642 -947 -639 0
-642 947 0
-642 639 0
643 -49 -736 0
-643 49 0
-643 736 0
644 -643 -708 0
-644 643 0
-644 708 0
645 -948 -642 0
-645 948 0
-645 642 0
646 -19 -7 0
-646 19 0
-646 7 0
647 -646 -745 0
-647 646 0
-647 745 0
648 -949 -645 0
-648 949 0
-648 645 0
649 -33 -31 0
-649 33 0
-649 31 0
650 -649 -24 0
-650 649 0
-650 24 0
651 -950 -648 0
-651 950 0
-651 648 0
652 -766 -8 0
-652 766 0
-652 8 0
653 -652 -715 0
-653 652 0
-653 715 0
654 -951 -651 0
-654 951 0
-654 651 0
655 -53 -23 0
-655 53 0
-655 23 0
656 -952 -654 0
-656 952 0
-656 654 0
657 -24 -754 0
-657 24 0
-657 754 0
658 -657 -702 0
-658 657 0
-658 702 0
659 -953 -656 0
-659 953 0
-659 656 0
660 -17 -2 0
-660 17 0
-660 2 0
661 -660 -38 0
-661 660 0
-661 38 0
662 -954 -659 0
-662 954 0
-662 659 0
663 -711 -707 0
-663 711 0
-663 707 0
664 -663 -6 0
-664 663 0
-664 6 0
665 -955 -662 0
-665 955 0
-665 662 0
666 -31 -18 0
-666 31 0
-666 18 0
667 -666 -720 0
-667 666 0
-667 720 0
668 -956 -665 0
-668 956 0
-668 665 0
669 -778 -770 0
-669 778 0
-669 770 0
670 -669 -24 0
-670 669 0
-670 24 0
671 -957 -668 0
-671 957 0
-671 668 0
672 -729 -707 0
-672 729 0
-672 707 0
673 -672 -786 0
-673 672 0
-673 786 0
674 -958 -671 0
-674 958 0
-674 671 0
675 -8 -719 0
-675 8 0
-675 719 0
676 -675 -724 0
-676 675 0
-676 724 0
677 -959 -674 0
-677 959 0
-677 674 0
678 -772 -741 0
-678 772 0
-678 741 0
679 -678 -36 0
-679 678 0
-679 36 0
680 -960 -677 0
-680 960 0
-680 677 0
681 -38 -762 0
-681 38 0
-681 762 0
682 -681 -724 0
-682 681 0
-682 724 0
683 -961 -680 0
-683 961 0
-683 680 0
684 -4 -700 0
-684 4 0
-684 700 0
685 -684 -11 0
-685 684 0
-685 11 0
686 -962 -683 0
-686 962 0
-686 683 0
687 -745 -699 0
-687 745 0
-687 699 0
688 -687 -814 0
-688 687 0
-688 814 0
689 -963 -686 0
-689 963 0
-689 686 0
690 -807 -44 0
-690 807 0
-690 44 0
691 -690 -743 0
-691 690 0
-691 743 0
692 -964 -689 0
-692 964 0
-692 689 0
693 -747 -21 0
-693 747 0
-693 21 0
694 -693 -50 0
-694 693 0
-694 50 0
695 -965 -692 0
-695 965 0
-695 692 0
696 -46 -803 0
-696 46 0
-696 803 0
697 -696 -21 0
-697 696 0
-697 21 0
698 -966 -695 0
-698 966 0
-698 695 0
-699 -1 0
699 1 0
-700 -3 0
700 3 0
-701 -4 0
701 4 0
-702 -6 0
702 6 0
-703 -54 0
703 54 0
-704 -52 0
704 52 0
-705 -8 0
705 8 0
-706 -57 0
706 57 0
-707 -10 0
707 10 0
-708 -11 0
708 11 0
-709 -60 0
709 60 0
-710 -63 0
710 63 0
-711 -15 0
711 15 0
-712 -66 0
712 66 0
-713 -14 0
713 14 0
-714 -69 0
714 69 0
-715 -17 0
715 17 0
-716 -72 0
716 72 0
-717 -19 0
717 19 0
-718 -75 0
718 75 0
-719 -5 0
719 5 0
-720 -23 0
720 23 0
-721 -78 0
721 78 0
-722 -7 0
722 7 0
-723 -81 0
723 81 0
-724 -24 0
724 24 0
-725 -12 0
725 12 0
-726 -84 0
726 84 0
-727 -87 0
727 87 0
-728 -27 0
728 27 0
-729 -28 0
729 28 0
-730 -90 0
730 90 0
-731 -93 0
731 93 0
-732 -30 0
732 30 0
-733 -96 0
733 96 0
-734 -99 0
734 99 0
-735 -102 0
735 102 0
-736 -33 0
736 33 0
-737 -105 0
737 105 0
-738 -108 0
738 108 0
-739 -111 0
739 111 0
-740 -38 0
740 38 0
-741 -35 0
741 35 0
-742 -114 0
742 114 0
-743 -18 0
743 18 0
-744 -117 0
744 117 0
-745 -41 0
745 41 0
-746 -120 0
746 120 0
-747 -29 0
747 29 0
-748 -9 0
748 9 0
-749 -123 0
749 123 0
-750 -42 0
750 42 0
-751 -126 0
751 126 0
-752 -129 0
752 129 0
-753 -132 0
753 132 0
-754 -16 0
754 16 0
-755 -135 0
755 135 0
-756 -138 0
756 138 0
-757 -141 0
757 141 0
-758 -144 0
758 144 0
-759 -45 0
759 45 0
-760 -147 0
760 147 0
-761 -150 0
761 150 0
-762 -13 0
762 13 0
-763 -153 0
763 153 0
-764 -34 0
764 34 0
-765 -156 0
765 156 0
-766 -20 0
766 20 0
-767 -159 0
767 159 0
-768 -162 0
768 162 0
-769 -165 0
769 165 0
-770 -37 0
770 37 0
-771 -168 0
771 168 0
-772 -47 0
772 47 0
-773 -171 0
773 171 0
-774 -174 0
774 174 0
-775 -21 0
775 21 0
-776 -177 0
776 177 0
-777 -180 0
777 180 0
-778 -43 0
778 43 0
-779 -183 0
779 183 0
-780 -186 0
780 186 0
-781 -189 0
781 189 0
-782 -49 0
782 49 0
-783 -192 0
783 192 0
-784 -195 0
784 195 0
-785 -198 0
785 198 0
-786 -36 0
786 36 0
-787 -201 0
787 201 0
-788 -50 0
788 50 0
-789 -204 0
789 204 0
-790 -207 0
790 207 0
-791 -2 0
791 2 0
-792 -210 0
792 210 0
-793 -213 0
793 213 0
-794 -46 0
794 46 0
-795 -216 0
795 216 0
-796 -219 0
796 219 0
-797 -222 0
797 222 0
-798 -225 0
798 225 0
-799 -228 0
799 228 0
-800 -231 0
800 231 0
-801 -234 0
801 234 0
-802 -237 0
802 237 0
-803 -39 0
803 39 0
-804 -240 0
804 240 0
-805 -243 0
805 243 0
-806 -246 0
806 246 0
-807 -48 0
807 48 0
-808 -249 0
808 249 0
-809 -252 0
809 252 0
-810 -255 0
810 255 0
-811 -258 0
811 258 0
-812 -261 0
812 261 0
-813 -25 0
813 25 0
-814 -32 0
814 32 0
-815 -264 0
815 264 0
-816 -267 0
816 267 0
-817 -270 0
817 270 0
-818 -273 0
818 273 0
-819 -276 0
819 276 0
-820 -40 0
820 40 0
-821 -279 0
821 279 0
-822 -282 0
822 282 0
-823 -285 0
823 285 0
-824 -288 0
824 288 0
-825 -291 0
825 291 0
-826 -294 0
826 294 0
-827 -26 0
827 26 0
-828 -297 0
828 297 0
-829 -300 0
829 300 0
-830 -303 0
830 303 0
-831 -306 0
831 306 0
-832 -309 0
832 309 0
-833 -312 0
833 312 0
-834 -315 0
834 315 0
-835 -318 0
835 318 0
-836 -321 0
836 321 0
-837 -324 0
837 324 0
-838 -327 0
838 327 0
-839 -330 0
839 330 0
-840 -333 0
840 333 0
-841 -336 0
841 336 0
-842 -339 0
842 339 0
-843 -342 0
843 342 0
-844 -345 0
844 345 0
-845 -348 0
845 348 0
-846 -351 0
846 351 0
-847 -354 0
847 354 0
-848 -357 0
848 357 0
-849 -360 0
849 360 0
-850 -363 0
850 363 0
-851 -366 0
851 366 0
-852 -369 0
852 369 0
-853 -372 0
853 372 0
-854 -374 0
854 374 0
-855 -377 0
855 377 0
-856 -380 0
856 380 0
-857 -383 0
857 383 0
-858 -386 0
858 386 0
-859 -389 0
859 389 0
-860 -392 0
860 392 0
-861 -395 0
861 395 0
-862 -398 0
862 398 0
-863 -401 0
863 401 0
-864 -404 0
864 404 0
-865 -407 0
865 407 0
-866 -410 0
866 410 0
-867 -413 0
867 413 0
-868 -416 0
868 416 0
-869 -419 0
869 419 0
-870 -422 0
870 422 0
-871 -425 0
871 425 0
-872 -428 0
872 428 0
-873 -431 0
873 431 0
-874 -44 0
874 44 0
-875 -434 0
875 434 0
-876 -437 0
876 437 0
-877 -22 0
877 22 0
-878 -440 0
878 440 0
-879 -443 0
879 443 0
-880 -446 0
880 446 0
-881 -449 0
881 449 0
-882 -31 0
882 31 0
-883 -452 0
883 452 0
-884 -454 0
884 454 0
-885 -457 0
885 457 0
-886 -460 0
886 460 0
-887 -463 0
887 463 0
-888 -466 0
888 466 0
-889 -468 0
889 468 0
-890 -471 0
890 471 0
-891 -474 0
891 474 0
-892 -477 0
892 477 0
-893 -480 0
893 480 0
-894 -483 0
894 483 0
-895 -486 0
895 486 0
-896 -489 0
896 489 0
-897 -492 0
897 492 0
-898 -495 0
898 495 0
-899 -498 0
899 498 0
-900 -501 0
900 501 0
-901 -504 0
901 504 0
-902 -507 0
902 507 0
-903 -510 0
903 510 0
-904 -513 0
904 513 0
-905 -516 0
905 516 0
-906 -519 0
906 519 0
-907 -522 0
907 522 0
-908 -525 0
908 525 0
-909 -528 0
909 528 0
-910 -531 0
910 531 0
-911 -534 0
911 534 0
-912 -537 0
912 537 0
-913 -540 0
913 540 0
-914 -543 0
914 543 0
-915 -546 0
915 546 0
-916 -549 0
916 549 0
-917 -552 0
917 552 0
-918 -555 0
918 555 0
-919 -558 0
919 558 0
-920 -561 0
920 561 0
-921 -564 0
921 564 0
-922 -567 0
922 567 0
-923 -570 0
923 570 0
-924 -573 0
924 573 0
-925 -576 0
925 576 0
-926 -579 0
926 579 0
-927 -582 0
927 582 0
-928 -585 0
928 585 0
-929 -588 0
929 588 0
-930 -591 0
930 591 0
-931 -594 0
931 594 0
-932 -597 0
932 597 0
-933 -600 0
933 600 0
-934 -603 0
934 603 0
-935 -605 0
935 605 0
-936 -608 0
936 608 0
-937 -611 0
937 611 0
-938 -614 0
938 614 0
-939 -617 0
939 617 0
-940 -620 0
940 620 0
-941 -623 0
941 623 0
-942 -626 0
942 626 0
-943 -629 0
943 629 0
-944 -632 0
944 632 0
-945 -635 0
945 635 0
-946 -638 0
946 638 0
-947 -641 0
947 641 0
-948 -644 0
948 644 0
-949 -647 0
949 647 0
-950 -650 0
950 650 0
-951 -653 0
951 653 0
-952 -655 0
952 655 0
-953 -658 0
953 658 0
-954 -661 0
954 661 0
-955 -664 0
955 664 0
-956 -667 0
956 667 0
-957 -670 0
957 670 0
-958 -673 0
958 673 0
-959 -676 0
959 676 0
-960 -679 0
960 679 0
-961 -682 0
961 682 0
-962 -685 0
962 685 0
-963 -688 0
963 688 0
-964 -691 0
964 691 0
-965 -694 0
965 694 0
-966 -697 0
966 697 0
698 0
